c Sudoku solution
p cnf 729 0
125 0
132 0
144 0
157 0
226 0
368 0
381 0
414 0
499 0
517 0
549 0
555 0
622 0
654 0
683 0
748 0
458 0
789 0
863 0
443 0
421 0
877 0
896 0
959 0
961 0
852 0
756 0
845 0
764 0
947 0
265 0
169 0
111 0
831 0
251 0
242 0
346 0
353 0
319 0
279 0
639 0
818 0
829 0
884 0
213 0
238 0
528 0
533 0
641 0
287 0
294 0
574 0
591 0
771 0
697 0
678 0
467 0
562 0
666 0
586 0
436 0
615 0
712 0
916 0
176 0
193 0
188 0
973 0
795 0
723 0
924 0
935 0
737 0
327 0
334 0
485 0
472 0
375 0
392 0
982 0
998 0
